15
2 1 3
3 1 3
3 2 5
4 0 3
4 1 1
4 2 2
5 1 5
5 2 3
5 3 5
5 4 4
6 1 4
6 2 3
6 3 1
6 4 2
6 5 2
7 4 5
7 5 5
8 1 3
8 6 4
8 7 5
9 0 5
9 2 5
9 3 5
10 0 4
10 4 2
10 5 2
10 7 3
10 9 5
11 0 2
11 1 4
11 4 1
11 9 4
11 10 1
12 3 4
12 4 5
12 8 4
12 10 5
12 11 2
13 0 2
13 1 2
13 4 3
13 5 4
13 6 4
13 7 1
13 8 2
13 9 2
13 10 3
13 11 3
14 0 5
14 1 3
14 3 5
14 4 3
14 8 3
14 9 2
14 11 2
